n_res = 5;
rcap = [23, 16, 13, 85, 95];
rtype = [1, 1, 1, 2, 2];
n_tasks = 16;
modes = [ {1, 2, 3}, {4, 5, 6}, {7, 8, 9}, {10, 11, 12}, {13, 14, 15}, {16, 17, 18}, {19, 20, 21}, {22, 23, 24}, {25, 26, 27}, {28, 29, 30}, {31, 32, 33}, {34, 35, 36}, {37, 38, 39}, {40, 41, 42}, {43, 44, 45}, {46, 47, 48} ];
succ = [ {4, 6, 7}, {6, 11, 12}, {5, 8, 11}, {14, 15}, {7, 9, 13}, {13, 14}, {12, 16}, {9, 15, 16}, {10}, {12}, {13}, {14}, {15, 16}, {}, {}, {} ];
n_opt = 48;
dur = [4, 4, 8, 3, 3, 7, 4, 7, 10, 2, 7, 8, 1, 9, 9, 3, 4, 7, 5, 8, 10, 1, 4, 4, 5, 5, 7, 5, 5, 10, 6, 7, 9, 5, 9, 9, 4, 5, 10, 1, 6, 9, 3, 8, 8, 6, 8, 10];
rreq = [|  0,  0,  3,  4,  0,  0,  4,  0,  4,  9,  0,  9, 10,  0,  6,  9,  0,  0,  8,  7,  6,  6,  6,  0,  5,  0,  0,  6,  5,  4,  0,  9,  8,  1,  0,  0,  0,  0,  0,  9,  0,  2,  0,  0,  0,  5,  3,  0
        |  0,  8,  0,  7,  0,  7, 10,  8,  7,  0,  0, 10,  7,  0,  0,  2,  1,  1,  7,  0,  0,  0,  0,  2,  4,  0,  4,  0,  8,  0,  0,  4,  0,  8,  5,  0,  3,  3,  0,  0,  9,  9,  4,  2,  0,  0,  0,  5
        |  7,  0,  0,  3,  4,  0,  0,  5,  0,  0, 10, 10,  4,  3,  0,  0,  0,  4,  3,  2,  2,  0,  0,  0,  0,  3,  2,  0,  0,  0,  4,  3,  0,  0, 10,  6,  6,  0,  5,  0,  0,  3,  0,  0,  2,  0,  0,  0
        |  8,  7,  4,  8,  8,  1,  2,  2,  1,  9,  9,  8,  7,  7,  7,  4,  4,  2,  5,  4,  2,  9,  2,  5,  2,  2,  1,  8,  7,  3,  4,  2,  2,  2,  1,  2, 10, 10, 10,  6,  3,  1,  8,  7,  6,  4,  3,  2
        |  4,  4,  4,  1,  1,  1,  9,  8,  6, 10,  9,  9,  7,  5,  6,  5,  4,  4,  8,  7,  5,  4,  4,  3, 10,  9,  8,  6,  6,  2,  2,  2,  2,  4,  3,  2,  7,  4,  3,  9,  8,  8,  7,  6,  7,  8,  7,  7 |];
